N = 7;
Q = [[[[-74.03536769  36.01768385  36.01768385  36.01768385  36.01768385
     36.01768385  36.01768385]
   [ 36.01768385   2.51264062   2.23229672   4.83822074   7.08217922
      2.14895027   9.5248397 ]
   [ 36.01768385   0.           0.           0.           0.
      0.           0.        ]
   [ 36.01768385   0.           0.           0.           0.
      0.           0.        ]
   [ 36.01768385   0.           0.           0.           0.
      0.           0.        ]
   [ 36.01768385   0.           0.           0.           0.
      0.           0.        ]
   [ 36.01768385   0.           0.           0.           0.
      0.           0.        ]]

  [[ 36.01768385 -72.03536769  36.01768385  36.01768385  36.01768385
     36.01768385  36.01768385]
   [  2.51264062  36.01768385   3.46311847   0.20878036   3.44876129
      9.3432941    9.77005151]
   [  0.          36.01768385   0.           0.           0.
      0.           0.        ]
   [  0.          36.01768385   0.           0.           0.
      0.           0.        ]
   [  0.          36.01768385   0.           0.           0.
      0.           0.        ]
   [  0.          36.01768385   0.           0.           0.
      0.           0.        ]
   [  0.          36.01768385   0.           0.           0.
      0.           0.        ]]

  [[ 36.01768385  36.01768385 -72.03536769  36.01768385  36.01768385
     36.01768385  36.01768385]
   [  2.23229672   3.46311847  36.01768385   4.38865507   6.42941919
      9.85965481   5.73227808]
   [  0.           0.          36.01768385   0.           0.
      0.           0.        ]
   [  0.           0.          36.01768385   0.           0.
      0.           0.        ]
   [  0.           0.          36.01768385   0.           0.
      0.           0.        ]
   [  0.           0.          36.01768385   0.           0.
      0.           0.        ]
   [  0.           0.          36.01768385   0.           0.
      0.           0.        ]]

  [[ 36.01768385  36.01768385  36.01768385 -72.03536769  36.01768385
     36.01768385  36.01768385]
   [  4.83822074   0.20878036   4.38865507  36.01768385   8.25659796
      6.29722278   4.05453752]
   [  0.           0.           0.          36.01768385   0.
      0.           0.        ]
   [  0.           0.           0.          36.01768385   0.
      0.           0.        ]
   [  0.           0.           0.          36.01768385   0.
      0.           0.        ]
   [  0.           0.           0.          36.01768385   0.
      0.           0.        ]
   [  0.           0.           0.          36.01768385   0.
      0.           0.        ]]

  [[ 36.01768385  36.01768385  36.01768385  36.01768385 -72.03536769
     36.01768385  36.01768385]
   [  7.08217922   3.44876129   6.42941919   8.25659796  36.01768385
      4.19894527   1.08475122]
   [  0.           0.           0.           0.          36.01768385
      0.           0.        ]
   [  0.           0.           0.           0.          36.01768385
      0.           0.        ]
   [  0.           0.           0.           0.          36.01768385
      0.           0.        ]
   [  0.           0.           0.           0.          36.01768385
      0.           0.        ]
   [  0.           0.           0.           0.          36.01768385
      0.           0.        ]]

  [[ 36.01768385  36.01768385  36.01768385  36.01768385  36.01768385
    -72.03536769  36.01768385]
   [  2.14895027   9.3432941    9.85965481   6.29722278   4.19894527
     36.01768385   3.16961662]
   [  0.           0.           0.           0.           0.
     36.01768385   0.        ]
   [  0.           0.           0.           0.           0.
     36.01768385   0.        ]
   [  0.           0.           0.           0.           0.
     36.01768385   0.        ]
   [  0.           0.           0.           0.           0.
     36.01768385   0.        ]
   [  0.           0.           0.           0.           0.
     36.01768385   0.        ]]

  [[ 36.01768385  36.01768385  36.01768385  36.01768385  36.01768385
     36.01768385 -72.03536769]
   [  9.5248397    9.77005151   5.73227808   4.05453752   1.08475122
      3.16961662  36.01768385]
   [  0.           0.           0.           0.           0.
      0.          36.01768385]
   [  0.           0.           0.           0.           0.
      0.          36.01768385]
   [  0.           0.           0.           0.           0.
      0.          36.01768385]
   [  0.           0.           0.           0.           0.
      0.          36.01768385]
   [  0.           0.           0.           0.           0.
      0.          36.01768385]]]


 [[[ 36.01768385   0.           0.           0.           0.
      0.           0.        ]
   [-72.03536769  36.01768385  36.01768385  36.01768385  36.01768385
     36.01768385  36.01768385]
   [ 36.01768385   2.51264062   2.23229672   4.83822074   7.08217922
      2.14895027   9.5248397 ]
   [ 36.01768385   0.           0.           0.           0.
      0.           0.        ]
   [ 36.01768385   0.           0.           0.           0.
      0.           0.        ]
   [ 36.01768385   0.           0.           0.           0.
      0.           0.        ]
   [ 36.01768385   0.           0.           0.           0.
      0.           0.        ]]

  [[  0.          36.01768385   0.           0.           0.
      0.           0.        ]
   [ 36.01768385 -72.03536769  36.01768385  36.01768385  36.01768385
     36.01768385  36.01768385]
   [  2.51264062  36.01768385   3.46311847   0.20878036   3.44876129
      9.3432941    9.77005151]
   [  0.          36.01768385   0.           0.           0.
      0.           0.        ]
   [  0.          36.01768385   0.           0.           0.
      0.           0.        ]
   [  0.          36.01768385   0.           0.           0.
      0.           0.        ]
   [  0.          36.01768385   0.           0.           0.
      0.           0.        ]]

  [[  0.           0.          36.01768385   0.           0.
      0.           0.        ]
   [ 36.01768385  36.01768385 -72.03536769  36.01768385  36.01768385
     36.01768385  36.01768385]
   [  2.23229672   3.46311847  36.01768385   4.38865507   6.42941919
      9.85965481   5.73227808]
   [  0.           0.          36.01768385   0.           0.
      0.           0.        ]
   [  0.           0.          36.01768385   0.           0.
      0.           0.        ]
   [  0.           0.          36.01768385   0.           0.
      0.           0.        ]
   [  0.           0.          36.01768385   0.           0.
      0.           0.        ]]

  [[  0.           0.           0.          36.01768385   0.
      0.           0.        ]
   [ 36.01768385  36.01768385  36.01768385 -72.03536769  36.01768385
     36.01768385  36.01768385]
   [  4.83822074   0.20878036   4.38865507  36.01768385   8.25659796
      6.29722278   4.05453752]
   [  0.           0.           0.          36.01768385   0.
      0.           0.        ]
   [  0.           0.           0.          36.01768385   0.
      0.           0.        ]
   [  0.           0.           0.          36.01768385   0.
      0.           0.        ]
   [  0.           0.           0.          36.01768385   0.
      0.           0.        ]]

  [[  0.           0.           0.           0.          36.01768385
      0.           0.        ]
   [ 36.01768385  36.01768385  36.01768385  36.01768385 -72.03536769
     36.01768385  36.01768385]
   [  7.08217922   3.44876129   6.42941919   8.25659796  36.01768385
      4.19894527   1.08475122]
   [  0.           0.           0.           0.          36.01768385
      0.           0.        ]
   [  0.           0.           0.           0.          36.01768385
      0.           0.        ]
   [  0.           0.           0.           0.          36.01768385
      0.           0.        ]
   [  0.           0.           0.           0.          36.01768385
      0.           0.        ]]

  [[  0.           0.           0.           0.           0.
     36.01768385   0.        ]
   [ 36.01768385  36.01768385  36.01768385  36.01768385  36.01768385
    -72.03536769  36.01768385]
   [  2.14895027   9.3432941    9.85965481   6.29722278   4.19894527
     36.01768385   3.16961662]
   [  0.           0.           0.           0.           0.
     36.01768385   0.        ]
   [  0.           0.           0.           0.           0.
     36.01768385   0.        ]
   [  0.           0.           0.           0.           0.
     36.01768385   0.        ]
   [  0.           0.           0.           0.           0.
     36.01768385   0.        ]]

  [[  0.           0.           0.           0.           0.
      0.          36.01768385]
   [ 36.01768385  36.01768385  36.01768385  36.01768385  36.01768385
     36.01768385 -72.03536769]
   [  9.5248397    9.77005151   5.73227808   4.05453752   1.08475122
      3.16961662  36.01768385]
   [  0.           0.           0.           0.           0.
      0.          36.01768385]
   [  0.           0.           0.           0.           0.
      0.          36.01768385]
   [  0.           0.           0.           0.           0.
      0.          36.01768385]
   [  0.           0.           0.           0.           0.
      0.          36.01768385]]]


 [[[ 36.01768385   0.           0.           0.           0.
      0.           0.        ]
   [ 36.01768385   0.           0.           0.           0.
      0.           0.        ]
   [-72.03536769  36.01768385  36.01768385  36.01768385  36.01768385
     36.01768385  36.01768385]
   [ 36.01768385   2.51264062   2.23229672   4.83822074   7.08217922
      2.14895027   9.5248397 ]
   [ 36.01768385   0.           0.           0.           0.
      0.           0.        ]
   [ 36.01768385   0.           0.           0.           0.
      0.           0.        ]
   [ 36.01768385   0.           0.           0.           0.
      0.           0.        ]]

  [[  0.          36.01768385   0.           0.           0.
      0.           0.        ]
   [  0.          36.01768385   0.           0.           0.
      0.           0.        ]
   [ 36.01768385 -72.03536769  36.01768385  36.01768385  36.01768385
     36.01768385  36.01768385]
   [  2.51264062  36.01768385   3.46311847   0.20878036   3.44876129
      9.3432941    9.77005151]
   [  0.          36.01768385   0.           0.           0.
      0.           0.        ]
   [  0.          36.01768385   0.           0.           0.
      0.           0.        ]
   [  0.          36.01768385   0.           0.           0.
      0.           0.        ]]

  [[  0.           0.          36.01768385   0.           0.
      0.           0.        ]
   [  0.           0.          36.01768385   0.           0.
      0.           0.        ]
   [ 36.01768385  36.01768385 -72.03536769  36.01768385  36.01768385
     36.01768385  36.01768385]
   [  2.23229672   3.46311847  36.01768385   4.38865507   6.42941919
      9.85965481   5.73227808]
   [  0.           0.          36.01768385   0.           0.
      0.           0.        ]
   [  0.           0.          36.01768385   0.           0.
      0.           0.        ]
   [  0.           0.          36.01768385   0.           0.
      0.           0.        ]]

  [[  0.           0.           0.          36.01768385   0.
      0.           0.        ]
   [  0.           0.           0.          36.01768385   0.
      0.           0.        ]
   [ 36.01768385  36.01768385  36.01768385 -72.03536769  36.01768385
     36.01768385  36.01768385]
   [  4.83822074   0.20878036   4.38865507  36.01768385   8.25659796
      6.29722278   4.05453752]
   [  0.           0.           0.          36.01768385   0.
      0.           0.        ]
   [  0.           0.           0.          36.01768385   0.
      0.           0.        ]
   [  0.           0.           0.          36.01768385   0.
      0.           0.        ]]

  [[  0.           0.           0.           0.          36.01768385
      0.           0.        ]
   [  0.           0.           0.           0.          36.01768385
      0.           0.        ]
   [ 36.01768385  36.01768385  36.01768385  36.01768385 -72.03536769
     36.01768385  36.01768385]
   [  7.08217922   3.44876129   6.42941919   8.25659796  36.01768385
      4.19894527   1.08475122]
   [  0.           0.           0.           0.          36.01768385
      0.           0.        ]
   [  0.           0.           0.           0.          36.01768385
      0.           0.        ]
   [  0.           0.           0.           0.          36.01768385
      0.           0.        ]]

  [[  0.           0.           0.           0.           0.
     36.01768385   0.        ]
   [  0.           0.           0.           0.           0.
     36.01768385   0.        ]
   [ 36.01768385  36.01768385  36.01768385  36.01768385  36.01768385
    -72.03536769  36.01768385]
   [  2.14895027   9.3432941    9.85965481   6.29722278   4.19894527
     36.01768385   3.16961662]
   [  0.           0.           0.           0.           0.
     36.01768385   0.        ]
   [  0.           0.           0.           0.           0.
     36.01768385   0.        ]
   [  0.           0.           0.           0.           0.
     36.01768385   0.        ]]

  [[  0.           0.           0.           0.           0.
      0.          36.01768385]
   [  0.           0.           0.           0.           0.
      0.          36.01768385]
   [ 36.01768385  36.01768385  36.01768385  36.01768385  36.01768385
     36.01768385 -72.03536769]
   [  9.5248397    9.77005151   5.73227808   4.05453752   1.08475122
      3.16961662  36.01768385]
   [  0.           0.           0.           0.           0.
      0.          36.01768385]
   [  0.           0.           0.           0.           0.
      0.          36.01768385]
   [  0.           0.           0.           0.           0.
      0.          36.01768385]]]


 [[[ 36.01768385   0.           0.           0.           0.
      0.           0.        ]
   [ 36.01768385   0.           0.           0.           0.
      0.           0.        ]
   [ 36.01768385   0.           0.           0.           0.
      0.           0.        ]
   [-72.03536769  36.01768385  36.01768385  36.01768385  36.01768385
     36.01768385  36.01768385]
   [ 36.01768385   2.51264062   2.23229672   4.83822074   7.08217922
      2.14895027   9.5248397 ]
   [ 36.01768385   0.           0.           0.           0.
      0.           0.        ]
   [ 36.01768385   0.           0.           0.           0.
      0.           0.        ]]

  [[  0.          36.01768385   0.           0.           0.
      0.           0.        ]
   [  0.          36.01768385   0.           0.           0.
      0.           0.        ]
   [  0.          36.01768385   0.           0.           0.
      0.           0.        ]
   [ 36.01768385 -72.03536769  36.01768385  36.01768385  36.01768385
     36.01768385  36.01768385]
   [  2.51264062  36.01768385   3.46311847   0.20878036   3.44876129
      9.3432941    9.77005151]
   [  0.          36.01768385   0.           0.           0.
      0.           0.        ]
   [  0.          36.01768385   0.           0.           0.
      0.           0.        ]]

  [[  0.           0.          36.01768385   0.           0.
      0.           0.        ]
   [  0.           0.          36.01768385   0.           0.
      0.           0.        ]
   [  0.           0.          36.01768385   0.           0.
      0.           0.        ]
   [ 36.01768385  36.01768385 -72.03536769  36.01768385  36.01768385
     36.01768385  36.01768385]
   [  2.23229672   3.46311847  36.01768385   4.38865507   6.42941919
      9.85965481   5.73227808]
   [  0.           0.          36.01768385   0.           0.
      0.           0.        ]
   [  0.           0.          36.01768385   0.           0.
      0.           0.        ]]

  [[  0.           0.           0.          36.01768385   0.
      0.           0.        ]
   [  0.           0.           0.          36.01768385   0.
      0.           0.        ]
   [  0.           0.           0.          36.01768385   0.
      0.           0.        ]
   [ 36.01768385  36.01768385  36.01768385 -72.03536769  36.01768385
     36.01768385  36.01768385]
   [  4.83822074   0.20878036   4.38865507  36.01768385   8.25659796
      6.29722278   4.05453752]
   [  0.           0.           0.          36.01768385   0.
      0.           0.        ]
   [  0.           0.           0.          36.01768385   0.
      0.           0.        ]]

  [[  0.           0.           0.           0.          36.01768385
      0.           0.        ]
   [  0.           0.           0.           0.          36.01768385
      0.           0.        ]
   [  0.           0.           0.           0.          36.01768385
      0.           0.        ]
   [ 36.01768385  36.01768385  36.01768385  36.01768385 -72.03536769
     36.01768385  36.01768385]
   [  7.08217922   3.44876129   6.42941919   8.25659796  36.01768385
      4.19894527   1.08475122]
   [  0.           0.           0.           0.          36.01768385
      0.           0.        ]
   [  0.           0.           0.           0.          36.01768385
      0.           0.        ]]

  [[  0.           0.           0.           0.           0.
     36.01768385   0.        ]
   [  0.           0.           0.           0.           0.
     36.01768385   0.        ]
   [  0.           0.           0.           0.           0.
     36.01768385   0.        ]
   [ 36.01768385  36.01768385  36.01768385  36.01768385  36.01768385
    -72.03536769  36.01768385]
   [  2.14895027   9.3432941    9.85965481   6.29722278   4.19894527
     36.01768385   3.16961662]
   [  0.           0.           0.           0.           0.
     36.01768385   0.        ]
   [  0.           0.           0.           0.           0.
     36.01768385   0.        ]]

  [[  0.           0.           0.           0.           0.
      0.          36.01768385]
   [  0.           0.           0.           0.           0.
      0.          36.01768385]
   [  0.           0.           0.           0.           0.
      0.          36.01768385]
   [ 36.01768385  36.01768385  36.01768385  36.01768385  36.01768385
     36.01768385 -72.03536769]
   [  9.5248397    9.77005151   5.73227808   4.05453752   1.08475122
      3.16961662  36.01768385]
   [  0.           0.           0.           0.           0.
      0.          36.01768385]
   [  0.           0.           0.           0.           0.
      0.          36.01768385]]]


 [[[ 36.01768385   0.           0.           0.           0.
      0.           0.        ]
   [ 36.01768385   0.           0.           0.           0.
      0.           0.        ]
   [ 36.01768385   0.           0.           0.           0.
      0.           0.        ]
   [ 36.01768385   0.           0.           0.           0.
      0.           0.        ]
   [-72.03536769  36.01768385  36.01768385  36.01768385  36.01768385
     36.01768385  36.01768385]
   [ 36.01768385   2.51264062   2.23229672   4.83822074   7.08217922
      2.14895027   9.5248397 ]
   [ 36.01768385   0.           0.           0.           0.
      0.           0.        ]]

  [[  0.          36.01768385   0.           0.           0.
      0.           0.        ]
   [  0.          36.01768385   0.           0.           0.
      0.           0.        ]
   [  0.          36.01768385   0.           0.           0.
      0.           0.        ]
   [  0.          36.01768385   0.           0.           0.
      0.           0.        ]
   [ 36.01768385 -72.03536769  36.01768385  36.01768385  36.01768385
     36.01768385  36.01768385]
   [  2.51264062  36.01768385   3.46311847   0.20878036   3.44876129
      9.3432941    9.77005151]
   [  0.          36.01768385   0.           0.           0.
      0.           0.        ]]

  [[  0.           0.          36.01768385   0.           0.
      0.           0.        ]
   [  0.           0.          36.01768385   0.           0.
      0.           0.        ]
   [  0.           0.          36.01768385   0.           0.
      0.           0.        ]
   [  0.           0.          36.01768385   0.           0.
      0.           0.        ]
   [ 36.01768385  36.01768385 -72.03536769  36.01768385  36.01768385
     36.01768385  36.01768385]
   [  2.23229672   3.46311847  36.01768385   4.38865507   6.42941919
      9.85965481   5.73227808]
   [  0.           0.          36.01768385   0.           0.
      0.           0.        ]]

  [[  0.           0.           0.          36.01768385   0.
      0.           0.        ]
   [  0.           0.           0.          36.01768385   0.
      0.           0.        ]
   [  0.           0.           0.          36.01768385   0.
      0.           0.        ]
   [  0.           0.           0.          36.01768385   0.
      0.           0.        ]
   [ 36.01768385  36.01768385  36.01768385 -72.03536769  36.01768385
     36.01768385  36.01768385]
   [  4.83822074   0.20878036   4.38865507  36.01768385   8.25659796
      6.29722278   4.05453752]
   [  0.           0.           0.          36.01768385   0.
      0.           0.        ]]

  [[  0.           0.           0.           0.          36.01768385
      0.           0.        ]
   [  0.           0.           0.           0.          36.01768385
      0.           0.        ]
   [  0.           0.           0.           0.          36.01768385
      0.           0.        ]
   [  0.           0.           0.           0.          36.01768385
      0.           0.        ]
   [ 36.01768385  36.01768385  36.01768385  36.01768385 -72.03536769
     36.01768385  36.01768385]
   [  7.08217922   3.44876129   6.42941919   8.25659796  36.01768385
      4.19894527   1.08475122]
   [  0.           0.           0.           0.          36.01768385
      0.           0.        ]]

  [[  0.           0.           0.           0.           0.
     36.01768385   0.        ]
   [  0.           0.           0.           0.           0.
     36.01768385   0.        ]
   [  0.           0.           0.           0.           0.
     36.01768385   0.        ]
   [  0.           0.           0.           0.           0.
     36.01768385   0.        ]
   [ 36.01768385  36.01768385  36.01768385  36.01768385  36.01768385
    -72.03536769  36.01768385]
   [  2.14895027   9.3432941    9.85965481   6.29722278   4.19894527
     36.01768385   3.16961662]
   [  0.           0.           0.           0.           0.
     36.01768385   0.        ]]

  [[  0.           0.           0.           0.           0.
      0.          36.01768385]
   [  0.           0.           0.           0.           0.
      0.          36.01768385]
   [  0.           0.           0.           0.           0.
      0.          36.01768385]
   [  0.           0.           0.           0.           0.
      0.          36.01768385]
   [ 36.01768385  36.01768385  36.01768385  36.01768385  36.01768385
     36.01768385 -72.03536769]
   [  9.5248397    9.77005151   5.73227808   4.05453752   1.08475122
      3.16961662  36.01768385]
   [  0.           0.           0.           0.           0.
      0.          36.01768385]]]


 [[[ 36.01768385   0.           0.           0.           0.
      0.           0.        ]
   [ 36.01768385   0.           0.           0.           0.
      0.           0.        ]
   [ 36.01768385   0.           0.           0.           0.
      0.           0.        ]
   [ 36.01768385   0.           0.           0.           0.
      0.           0.        ]
   [ 36.01768385   0.           0.           0.           0.
      0.           0.        ]
   [-72.03536769  36.01768385  36.01768385  36.01768385  36.01768385
     36.01768385  36.01768385]
   [ 36.01768385   2.51264062   2.23229672   4.83822074   7.08217922
      2.14895027   9.5248397 ]]

  [[  0.          36.01768385   0.           0.           0.
      0.           0.        ]
   [  0.          36.01768385   0.           0.           0.
      0.           0.        ]
   [  0.          36.01768385   0.           0.           0.
      0.           0.        ]
   [  0.          36.01768385   0.           0.           0.
      0.           0.        ]
   [  0.          36.01768385   0.           0.           0.
      0.           0.        ]
   [ 36.01768385 -72.03536769  36.01768385  36.01768385  36.01768385
     36.01768385  36.01768385]
   [  2.51264062  36.01768385   3.46311847   0.20878036   3.44876129
      9.3432941    9.77005151]]

  [[  0.           0.          36.01768385   0.           0.
      0.           0.        ]
   [  0.           0.          36.01768385   0.           0.
      0.           0.        ]
   [  0.           0.          36.01768385   0.           0.
      0.           0.        ]
   [  0.           0.          36.01768385   0.           0.
      0.           0.        ]
   [  0.           0.          36.01768385   0.           0.
      0.           0.        ]
   [ 36.01768385  36.01768385 -72.03536769  36.01768385  36.01768385
     36.01768385  36.01768385]
   [  2.23229672   3.46311847  36.01768385   4.38865507   6.42941919
      9.85965481   5.73227808]]

  [[  0.           0.           0.          36.01768385   0.
      0.           0.        ]
   [  0.           0.           0.          36.01768385   0.
      0.           0.        ]
   [  0.           0.           0.          36.01768385   0.
      0.           0.        ]
   [  0.           0.           0.          36.01768385   0.
      0.           0.        ]
   [  0.           0.           0.          36.01768385   0.
      0.           0.        ]
   [ 36.01768385  36.01768385  36.01768385 -72.03536769  36.01768385
     36.01768385  36.01768385]
   [  4.83822074   0.20878036   4.38865507  36.01768385   8.25659796
      6.29722278   4.05453752]]

  [[  0.           0.           0.           0.          36.01768385
      0.           0.        ]
   [  0.           0.           0.           0.          36.01768385
      0.           0.        ]
   [  0.           0.           0.           0.          36.01768385
      0.           0.        ]
   [  0.           0.           0.           0.          36.01768385
      0.           0.        ]
   [  0.           0.           0.           0.          36.01768385
      0.           0.        ]
   [ 36.01768385  36.01768385  36.01768385  36.01768385 -72.03536769
     36.01768385  36.01768385]
   [  7.08217922   3.44876129   6.42941919   8.25659796  36.01768385
      4.19894527   1.08475122]]

  [[  0.           0.           0.           0.           0.
     36.01768385   0.        ]
   [  0.           0.           0.           0.           0.
     36.01768385   0.        ]
   [  0.           0.           0.           0.           0.
     36.01768385   0.        ]
   [  0.           0.           0.           0.           0.
     36.01768385   0.        ]
   [  0.           0.           0.           0.           0.
     36.01768385   0.        ]
   [ 36.01768385  36.01768385  36.01768385  36.01768385  36.01768385
    -72.03536769  36.01768385]
   [  2.14895027   9.3432941    9.85965481   6.29722278   4.19894527
     36.01768385   3.16961662]]

  [[  0.           0.           0.           0.           0.
      0.          36.01768385]
   [  0.           0.           0.           0.           0.
      0.          36.01768385]
   [  0.           0.           0.           0.           0.
      0.          36.01768385]
   [  0.           0.           0.           0.           0.
      0.          36.01768385]
   [  0.           0.           0.           0.           0.
      0.          36.01768385]
   [ 36.01768385  36.01768385  36.01768385  36.01768385  36.01768385
     36.01768385 -72.03536769]
   [  9.5248397    9.77005151   5.73227808   4.05453752   1.08475122
      3.16961662  36.01768385]]]


 [[[ 36.01768385   2.51264062   2.23229672   4.83822074   7.08217922
      2.14895027   9.5248397 ]
   [ 36.01768385   0.           0.           0.           0.
      0.           0.        ]
   [ 36.01768385   0.           0.           0.           0.
      0.           0.        ]
   [ 36.01768385   0.           0.           0.           0.
      0.           0.        ]
   [ 36.01768385   0.           0.           0.           0.
      0.           0.        ]
   [ 36.01768385   0.           0.           0.           0.
      0.           0.        ]
   [-72.03536769  36.01768385  36.01768385  36.01768385  36.01768385
     36.01768385  36.01768385]]

  [[  2.51264062  36.01768385   3.46311847   0.20878036   3.44876129
      9.3432941    9.77005151]
   [  0.          36.01768385   0.           0.           0.
      0.           0.        ]
   [  0.          36.01768385   0.           0.           0.
      0.           0.        ]
   [  0.          36.01768385   0.           0.           0.
      0.           0.        ]
   [  0.          36.01768385   0.           0.           0.
      0.           0.        ]
   [  0.          36.01768385   0.           0.           0.
      0.           0.        ]
   [ 36.01768385 -72.03536769  36.01768385  36.01768385  36.01768385
     36.01768385  36.01768385]]

  [[  2.23229672   3.46311847  36.01768385   4.38865507   6.42941919
      9.85965481   5.73227808]
   [  0.           0.          36.01768385   0.           0.
      0.           0.        ]
   [  0.           0.          36.01768385   0.           0.
      0.           0.        ]
   [  0.           0.          36.01768385   0.           0.
      0.           0.        ]
   [  0.           0.          36.01768385   0.           0.
      0.           0.        ]
   [  0.           0.          36.01768385   0.           0.
      0.           0.        ]
   [ 36.01768385  36.01768385 -72.03536769  36.01768385  36.01768385
     36.01768385  36.01768385]]

  [[  4.83822074   0.20878036   4.38865507  36.01768385   8.25659796
      6.29722278   4.05453752]
   [  0.           0.           0.          36.01768385   0.
      0.           0.        ]
   [  0.           0.           0.          36.01768385   0.
      0.           0.        ]
   [  0.           0.           0.          36.01768385   0.
      0.           0.        ]
   [  0.           0.           0.          36.01768385   0.
      0.           0.        ]
   [  0.           0.           0.          36.01768385   0.
      0.           0.        ]
   [ 36.01768385  36.01768385  36.01768385 -72.03536769  36.01768385
     36.01768385  36.01768385]]

  [[  7.08217922   3.44876129   6.42941919   8.25659796  36.01768385
      4.19894527   1.08475122]
   [  0.           0.           0.           0.          36.01768385
      0.           0.        ]
   [  0.           0.           0.           0.          36.01768385
      0.           0.        ]
   [  0.           0.           0.           0.          36.01768385
      0.           0.        ]
   [  0.           0.           0.           0.          36.01768385
      0.           0.        ]
   [  0.           0.           0.           0.          36.01768385
      0.           0.        ]
   [ 36.01768385  36.01768385  36.01768385  36.01768385 -72.03536769
     36.01768385  36.01768385]]

  [[  2.14895027   9.3432941    9.85965481   6.29722278   4.19894527
     36.01768385   3.16961662]
   [  0.           0.           0.           0.           0.
     36.01768385   0.        ]
   [  0.           0.           0.           0.           0.
     36.01768385   0.        ]
   [  0.           0.           0.           0.           0.
     36.01768385   0.        ]
   [  0.           0.           0.           0.           0.
     36.01768385   0.        ]
   [  0.           0.           0.           0.           0.
     36.01768385   0.        ]
   [ 36.01768385  36.01768385  36.01768385  36.01768385  36.01768385
    -72.03536769  36.01768385]]

  [[  9.5248397    9.77005151   5.73227808   4.05453752   1.08475122
      3.16961662  36.01768385]
   [  0.           0.           0.           0.           0.
      0.          36.01768385]
   [  0.           0.           0.           0.           0.
      0.          36.01768385]
   [  0.           0.           0.           0.           0.
      0.          36.01768385]
   [  0.           0.           0.           0.           0.
      0.          36.01768385]
   [  0.           0.           0.           0.           0.
      0.          36.01768385]
   [ 36.01768385  36.01768385  36.01768385  36.01768385  36.01768385
     36.01768385 -72.03536769]]]];
C = 506.24757383101587;
// The indices of the 4-tensor Q are (time,node, time,node). It is to be contracted with boolean variables x with indices (time,node). To unfold it and write everything in standard matrix formulation, use np.reshape(Q,(N**2,N**2) and np.reshape(x,N**2).